57 54 52 55 57 54 57 54 56 57 55 57 56 58 54 54 58 52 54 55 
49 50 50 48 49 50 49 49 48 50 50 50 49 50 48 50 50 48 50 48 
57 58 57 58 56 58 57 57 58 56 58 57 56 56 56 58 58 57 57 56 
51 51 51 51 50 51 50 49 49 51 49 49 50 51 51 50 51 51 51 50 
59 60 59 61 56 60 52 56 54 59 55 52 61 60 57 51 56 55 58 53 
59 58 54 61 55 55 57 55 60 53 57 57 54 55 54 61 60 60 56 57 
55 55 57 57 56 55 56 56 57 57 56 55 56 55 57 56 57 57 55 56 
48 50 52 50 50 50 49 51 48 47 53 47 51 47 51 47 47 49 47 50 
53 58 54 58 55 55 58 56 53 55 54 52 58 58 58 52 55 57 58 54 
54 53 54 49 55 50 51 49 55 52 52 49 54 54 49 54 51 54 57 56 
58 56 58 56 58 57 58 57 58 58 56 56 56 56 57 57 57 56 57 56 
56 55 53 53 59 58 56 55 53 59 54 55 53 53 56 59 55 55 53 56 
61 60 56 58 61 58 57 58 61 57 56 59 56 61 58 58 58 58 61 59 
56 55 50 53 49 53 56 49 47 56 51 56 47 50 56 50 47 54 52 47 
50 52 49 51 51 49 52 51 52 50 50 48 51 50 49 49 51 50 52 49 
49 53 50 53 54 53 55 55 52 50 57 52 57 54 56 51 55 49 49 51 
60 53 56 59 61 60 56 59 57 56 55 57 59 54 59 57 53 56 58 55 
59 59 56 56 58 57 58 56 57 59 60 56 60 59 58 60 60 56 58 60 
49 48 52 48 51 48 48 52 50 50 48 52 52 52 50 50 51 51 51 48 
54 52 54 52 54 52 53 52 53 52 54 53 54 52 52 53 53 54 53 53 
56 54 59 59 56 59 56 56 51 57 53 51 61 60 55 55 56 53 53 57 
62 61 59 61 56 59 54 59 58 61 54 62 61 60 54 55 60 54 60 57 
55 55 58 55 55 54 58 55 56 56 54 57 55 56 57 58 54 56 57 54 
51 54 51 55 49 52 50 55 49 51 51 51 49 54 55 54 50 53 54 52 
58 59 56 56 58 59 57 59 56 57 56 56 57 56 58 55 56 59 59 57 
53 52 51 52 52 51 51 53 51 52 52 52 53 52 51 52 53 53 53 52 
60 59 58 56 56 57 57 60 59 60 56 58 57 58 58 59 60 57 60 59 
55 53 47 48 53 52 54 51 52 52 53 50 52 51 54 47 47 47 53 49 
56 59 55 53 51 59 56 59 55 56 57 58 57 57 52 57 59 58 57 55 
57 60 56 55 59 59 52 50 52 52 57 51 52 57 58 50 53 55 56 50 
55 59 56 60 54 59 63 56 55 60 55 56 53 57 60 53 59 56 55 57 
54 54 60 62 61 55 56 56 61 62 57 56 58 57 57 58 54 57 61 62 
57 57 56 59 56 57 56 58 59 57 59 56 57 58 59 59 57 56 60 58 
56 55 55 56 55 56 54 54 54 54 56 55 55 55 54 54 56 55 56 56 
54 50 51 50 54 50 52 51 51 54 51 51 54 51 53 52 53 52 51 51 
58 59 51 54 57 57 54 57 59 51 57 58 53 55 57 49 49 54 51 49 
48 48 48 50 50 50 49 50 48 49 48 48 49 48 48 50 50 50 48 49 
52 57 57 51 54 54 51 53 51 54 59 55 56 52 52 54 59 53 52 54 
55 51 52 56 50 54 56 58 54 56 55 56 53 52 53 52 52 52 58 54 
54 53 52 52 52 52 54 54 53 53 52 53 52 54 53 52 54 53 54 53 
59 60 60 57 57 59 60 59 60 58 59 56 60 59 60 56 57 60 57 57 
59 56 60 60 56 60 56 59 59 58 62 53 53 56 56 56 63 57 62 57 
55 54 53 55 55 55 49 55 55 49 54 49 55 51 49 51 52 50 50 51 
55 54 51 50 55 53 55 52 50 49 54 50 55 51 50 51 52 52 53 50 
52 48 51 49 54 54 52 51 51 51 48 53 54 53 49 53 54 48 48 50 
52 52 53 53 51 53 52 51 51 52 53 51 51 53 51 52 53 52 52 51 
56 55 58 54 55 50 58 60 51 59 56 52 52 51 58 55 60 54 58 57 
59 60 53 58 51 59 58 56 57 51 57 60 52 57 52 51 59 59 52 51 
57 57 58 57 57 57 56 56 56 56 58 57 56 57 58 57 57 56 58 56 
56 55 59 51 59 52 53 53 51 59 53 54 59 57 52 54 58 54 53 54 
53 55 56 51 54 58 57 56 57 54 53 52 56 52 51 55 55 54 51 52 
56 58 56 53 56 54 57 55 58 52 56 57 57 58 57 57 53 53 52 57 
55 54 54 56 55 56 54 56 56 55 55 55 56 55 55 54 55 54 56 54 
56 58 59 63 55 56 55 63 57 61 58 60 59 60 58 63 57 56 61 63 
52 54 53 51 52 51 52 53 51 53 54 52 53 53 51 52 53 54 53 53 
50 52 49 52 49 48 53 50 51 47 45 50 52 52 47 49 52 47 53 48 
61 58 57 58 58 61 59 60 59 58 58 58 58 61 59 61 61 61 57 57 
53 53 53 51 52 52 53 52 53 53 51 52 51 53 53 52 53 53 53 51 
48 53 51 49 47 48 51 52 47 52 48 47 52 52 50 48 51 50 50 49 
62 62 61 57 56 55 54 61 56 58 57 55 60 56 58 57 62 56 59 55 
49 53 49 52 52 53 52 51 49 49 49 51 53 53 51 51 53 51 53 50 
58 57 55 59 56 55 57 56 59 56 59 61 56 61 57 61 57 59 58 57 
58 55 56 56 60 61 55 60 61 61 56 61 60 60 60 61 55 56 58 59 
53 52 52 53 53 52 53 52 53 54 53 54 54 54 53 53 54 53 54 52 
54 56 56 55 55 53 57 56 56 51 52 56 52 54 54 56 53 56 57 51 
53 47 47 54 55 51 48 47 55 47 55 48 47 51 48 50 48 47 47 55 
55 51 53 54 52 52 53 51 51 54 55 55 51 51 54 51 51 54 54 53 
59 60 60 56 57 61 59 60 60 57 61 59 59 58 56 59 55 60 55 57 
53 54 53 53 54 53 54 52 52 52 54 53 52 54 53 52 52 52 54 52 
51 54 50 53 50 53 50 49 50 49 49 51 48 53 49 49 48 53 52 51 
63 58 61 61 61 56 55 59 59 61 61 61 59 58 59 64 60 62 62 61 
49 56 52 51 57 50 49 52 49 57 52 56 48 48 56 48 47 51 52 55 
54 49 53 54 51 50 51 52 49 49 53 50 49 50 53 50 51 52 48 49 
49 50 52 52 54 48 51 54 54 48 48 53 49 48 50 48 50 51 48 53 
52 52 53 53 51 54 53 54 51 54 51 51 51 55 52 53 55 51 51 54 
56 55 60 53 58 59 57 57 56 55 58 60 58 53 53 58 53 60 59 60 
53 53 54 50 54 50 54 50 52 51 52 54 51 53 53 51 53 51 53 53 
53 53 55 52 52 52 55 50 50 56 53 48 51 50 49 52 52 51 53 48 
55 51 51 48 49 51 54 56 50 49 58 58 48 57 48 55 52 48 56 58 
50 56 58 53 55 54 50 58 51 58 51 55 60 54 55 58 57 55 52 57 
55 55 56 56 55 57 57 55 55 57 56 55 57 55 57 55 57 56 57 57 
50 48 52 51 52 53 50 50 48 51 49 51 48 48 50 50 49 53 53 50 
53 51 57 50 58 51 58 55 57 57 56 50 53 56 49 58 56 52 53 52 
53 52 51 52 51 51 51 51 51 53 53 52 53 53 51 51 51 53 53 53 
62 59 58 58 62 55 54 59 57 61 54 53 52 61 56 55 58 55 53 56 
51 49 50 50 50 51 49 49 49 50 49 49 51 51 50 51 50 50 50 51 
49 50 50 49 49 50 50 51 49 49 50 49 49 50 51 49 49 51 49 50 
52 47 52 52 54 49 52 52 53 48 52 46 48 53 51 54 51 49 51 47 
60 57 59 56 60 56 56 57 61 60 57 58 59 60 59 57 55 56 61 56 
52 54 48 48 51 54 49 54 49 53 50 50 53 54 50 52 49 48 48 53 
49 53 48 54 46 48 48 51 54 46 51 53 50 49 50 51 46 50 49 48 
58 57 58 58 58 56 57 58 56 56 58 56 58 56 56 56 58 58 56 56 
62 56 59 59 58 55 63 55 63 57 62 61 59 56 61 63 56 56 60 58 
50 56 50 53 58 56 54 58 53 56 56 54 52 56 52 55 57 50 56 52 
48 48 52 50 47 47 54 49 54 53 49 49 55 52 50 51 52 53 52 54 
60 53 52 54 54 54 60 54 59 58 53 61 58 56 56 58 53 55 55 58 
58 58 57 57 56 56 57 57 56 58 57 58 57 56 57 58 57 56 57 57 
57 58 56 60 55 56 57 60 57 55 54 56 54 56 54 57 54 59 55 55 
50 47 51 51 49 49 51 50 49 48 49 51 47 50 50 50 50 48 50 50 
60 58 60 60 54 54 54 61 54 53 53 59 60 54 60 58 56 61 55 59 